241 300 172 21 113 178 178 180 25 152 105 89 47 97 165 57 150 146 100 18 119 196 184 67 37 151 9 32 40 49 91 114 189 62 86 54 192 63 185 168 166 89 56 12 138 20 69 87 165 120 104 35 116 39 101 104 141 61 87 181 109 177 46 50 191 131 103 134 193 87 101 159 127 156 122 64 127 142 102 43 62 5 77 129 196 129 184 136 189 71 116 50 199 161 51 189 91 153 74 36 191 174 146 69 81 19 133 7 161 34 1 174 191 77 54 186 157 37 73 146 59 141 147 58 53 197 198 96 101 72 131 91 45 28 159 126 46 43 84 6 29 85 131 19 113 184 156 70 173 180 167 31 120 113 88 173 61 86 68 161 157 150 3 153 177 113 30 174 156 114 132 184 150 62 154 62 46 61 83 18 40 49 48 112 113 88 84 125 125 103 85 81 4 39 185 180 152 15 105 59 80 36 194 181 98 147 194 95 159 77 112 150 77 111 61 190 198 96 114 122 150 151 154 153 189 91 84 92 105 189 150 136 24 143 116 73 41 109 167 199 137 78 101 